words_hard_train/8326.qaiger
aag 76 14 0 1 62
2
4
8
10
16
30
40
54
60
68
76
84
104
130
152
6 2 5
12 8 11
14 7 13
18 16 5
20 10 16
22 11 17
24 23 4
26 21 24
28 19 27
32 28 31
34 14 33
36 29 30
38 34 37
42 24 40
44 25 41
46 43 45
48 46 29
50 47 28
52 49 51
56 52 54
58 38 57
62 60 4
64 40 4
66 65 25
70 66 69
72 71 4
74 63 73
78 75 76
80 74 77
82 79 81
86 82 84
88 58 87
90 72 60
92 73 61
94 91 93
96 67 68
98 97 71
100 99 50
102 94 101
106 103 104
108 83 85
110 106 108
112 88 111
114 95 100
116 103 115
118 117 105
120 115 109
122 119 121
124 112 122
126 98 51
128 127 101
132 128 130
134 129 131
136 133 135
138 9 10
140 53 55
142 139 141
144 136 142
146 81 2
148 147 4
150 144 149
152 124 150
i0 2 y1[6]
i1 2 y1[7]
i2 1 x1[2]
i3 2 y1[0]
i4 2 y1[1]
i5 1 x1[3]
i6 2 y1[2]
i7 1 x1[4]
i8 2 y1[4]
i9 2 y1[3]
i10 2 y1[5]
i11 1 x1[7]
i12 1 x1[6]
i13 1 x1[5]
o0 bool[0]
c
simplified
  ==
    add
      abs
        2 y1
      invert
        1
    >> 2
      1 x1
