words_hard_train/8326.qaiger.qdimacs
p cnf 76 187
a 65 4 42 15 52 27 0
e 1 2 3 5 6 7 8 9 10 11 12 13 14 16 17 18 19 20 21 22 23 24 25 26 28 29 30 31 32 33 34 35 36 37 38 39 40 41 43 44 45 46 47 48 49 50 51 53 54 55 56 57 58 59 60 61 62 63 64 66 67 68 69 70 71 72 73 74 75 76 0
-1 2 3 0
1 -3 0
-2 -3 0
-4 5 6 0
4 -6 0
-5 -6 0
3 6 7 0
-3 -7 0
-6 -7 0
-8 2 9 0
8 -9 0
-2 -9 0
-5 -8 10 0
5 -10 0
8 -10 0
5 8 11 0
-5 -11 0
-8 -11 0
11 -2 12 0
-11 -12 0
2 -12 0
10 -12 13 0
-10 -13 0
12 -13 0
9 13 14 0
-9 -14 0
-13 -14 0
-14 15 16 0
14 -16 0
-15 -16 0
-7 16 17 0
7 -17 0
-16 -17 0
14 -15 18 0
-14 -18 0
15 -18 0
-17 18 19 0
17 -19 0
-18 -19 0
-12 -20 21 0
12 -21 0
20 -21 0
12 20 22 0
-12 -22 0
-20 -22 0
21 22 23 0
-21 -23 0
-22 -23 0
-23 14 24 0
23 -24 0
-14 -24 0
23 -14 25 0
-23 -25 0
14 -25 0
24 25 26 0
-24 -26 0
-25 -26 0
-26 -27 28 0
26 -28 0
27 -28 0
-19 28 29 0
19 -29 0
-28 -29 0
-30 -2 31 0
30 -31 0
2 -31 0
-20 -2 32 0
20 -32 0
2 -32 0
32 12 33 0
-32 -33 0
-12 -33 0
-33 34 35 0
33 -35 0
-34 -35 0
35 -2 36 0
-35 -36 0
2 -36 0
31 36 37 0
-31 -37 0
-36 -37 0
37 -38 39 0
-37 -39 0
38 -39 0
-37 38 40 0
37 -40 0
-38 -40 0
39 40 41 0
-39 -41 0
-40 -41 0
-41 -42 43 0
41 -43 0
42 -43 0
-29 43 44 0
29 -44 0
-43 -44 0
-36 -30 45 0
36 -45 0
30 -45 0
36 30 46 0
-36 -46 0
-30 -46 0
45 46 47 0
-45 -47 0
-46 -47 0
33 -34 48 0
-33 -48 0
34 -48 0
48 35 49 0
-48 -49 0
-35 -49 0
49 -25 50 0
-49 -50 0
25 -50 0
-47 50 51 0
47 -51 0
-50 -51 0
51 -52 53 0
-51 -53 0
52 -53 0
41 42 54 0
-41 -54 0
-42 -54 0
-53 -54 55 0
53 -55 0
54 -55 0
-44 55 56 0
44 -56 0
-55 -56 0
47 -50 57 0
-47 -57 0
50 -57 0
51 57 58 0
-51 -58 0
-57 -58 0
58 52 59 0
-58 -59 0
-52 -59 0
57 54 60 0
-57 -60 0
-54 -60 0
59 60 61 0
-59 -61 0
-60 -61 0
-56 -61 62 0
56 -62 0
61 -62 0
-49 25 63 0
49 -63 0
-25 -63 0
63 50 64 0
-63 -64 0
-50 -64 0
-64 -65 66 0
64 -66 0
65 -66 0
64 65 67 0
-64 -67 0
-65 -67 0
66 67 68 0
-66 -68 0
-67 -68 0
4 -5 69 0
-4 -69 0
5 -69 0
26 27 70 0
-26 -70 0
-27 -70 0
69 70 71 0
-69 -71 0
-70 -71 0
-68 -71 72 0
68 -72 0
71 -72 0
40 -1 73 0
-40 -73 0
1 -73 0
73 -2 74 0
-73 -74 0
2 -74 0
-72 74 75 0
72 -75 0
-74 -75 0
-62 -75 76 0
62 -76 0
75 -76 0
76 0
